n = 20;
clue = clue = clue = clue = [| 15, 19, 5, 2, 16, 17, 13, 18, 18, 10, 3, 4, 8, 20, 14, 1, 6, 7, 4, 12
 | 10, 2... ] // array too long to display, dimensions: (30)
 // array too long to display, dimensions: (381)


